sat
(
  (define-fun C1_VM4 () Int
    1)
  (define-fun C2_VM5 () Int
    0)
  (define-fun C1_VM3 () Int
    0)
  (define-fun PriceProv4 () Int
    252)
  (define-fun ProcProv1 () Int
    4)
  (define-fun MemProv4 () Int
    7500)
  (define-fun VM3Type () Int
    26)
  (define-fun StorageProv2 () Int
    2000)
  (define-fun PriceProv1 () Int
    252)
  (define-fun C4_VM4 () Int
    0)
  (define-fun C5_VM5 () Int
    0)
  (define-fun MemProv1 () Int
    7500)
  (define-fun C3_VM5 () Int
    0)
  (define-fun VM1Type () Int
    26)
  (define-fun StorageProv3 () Int
    2000)
  (define-fun MemProv2 () Int
    3750)
  (define-fun C2_VM1 () Int
    0)
  (define-fun C4_VM1 () Int
    0)
  (define-fun MemProv5 () Int
    3750)
  (define-fun PriceProv5 () Int
    128)
  (define-fun C5_VM4 () Int
    0)
  (define-fun MemProv3 () Int
    7500)
  (define-fun PriceProv2 () Int
    128)
  (define-fun C3_VM1 () Int
    1)
  (define-fun ProcProv2 () Int
    2)
  (define-fun StorageProv1 () Int
    2000)
  (define-fun C4_VM5 () Int
    1)
  (define-fun C3_VM2 () Int
    0)
  (define-fun C2_VM4 () Int
    0)
  (define-fun PriceProv3 () Int
    252)
  (define-fun C4_VM2 () Int
    0)
  (define-fun C3_VM3 () Int
    0)
  (define-fun VM4Type () Int
    27)
  (define-fun C1_VM2 () Int
    0)
  (define-fun ProcProv3 () Int
    4)
  (define-fun C1_VM5 () Int
    0)
  (define-fun StorageProv5 () Int
    2000)
  (define-fun C5_VM2 () Int
    0)
  (define-fun C4_VM3 () Int
    0)
  (define-fun C3_VM4 () Int
    0)
  (define-fun VM5Type () Int
    37)
  (define-fun C5_VM3 () Int
    1)
  (define-fun VM2Type () Int
    37)
  (define-fun C2_VM3 () Int
    0)
  (define-fun StorageProv4 () Int
    2000)
  (define-fun ProcProv4 () Int
    4)
  (define-fun C2_VM2 () Int
    1)
  (define-fun ProcProv5 () Int
    2)
  (define-fun C5_VM1 () Int
    0)
  (define-fun C1_VM1 () Int
    0)
)
(objectives
 ( 5)
 ((+ 0 PriceProv1 PriceProv2 PriceProv3 PriceProv4 PriceProv5) 1012)
)
(:added-eqs                   134931
 :arith-eq-adapter            27272
 :arith-bound-propagations-lp 9936
 :arith-conflicts             113
 :arith-diseq                 185981
 :arith-fixed-eqs             1940
 :arith-lower                 196326
 :arith-make-feasible         26662
 :arith-max-columns           134
 :arith-max-rows              17
 :arith-upper                 194550
 :binary-propagations         839324
 :conflicts                   3547
 :decisions                   60262
 :del-clause                  27300
 :final-checks                143
 :max-memory                  44.78
 :maxsat-cores                5
 :memory                      44.78
 :minimized-lits              56982
 :mk-bool-var                 55151
 :mk-clause                   28675
 :mk-clause-binary            3737
 :num-allocs                  130426980
 :num-checks                  122
 :pb-conflicts                1430
 :pb-predicates               384
 :pb-propagations             2269
 :pb-resolves                 1425
 :propagations                1393479
 :restarts                    23
 :rlimit-count                7663338
 :solve-eqs-elim-vars         2
 :solve-eqs-steps             16
 :time                        0.43
 :total-time                  0.44)
